NAME : netgen20-5_26
COMMENT : Generated using the function generateClusteredNetwork from the R-package netgen (Bossek,2015) - Number of clusters: 5
TYPE : TSP
DIMENSION : 20
EDGE_WEIGHT_TYPE : EUC_2D
NODE_COORD_SECTION
1 42.9792788073 69.3977385333
2 46.3982636591 63.1167707898
3 54.9411457983 60.8091117177
4 52.5245684101 53.5940691913
5 31.8946940589 72.68026958
6 25.1626189295 75.8872948464
7 36.6743786559 80.0749448168
8 21.3180194081 74.0298795077
9 63.3281662376 90.8476472232
10 52.1311333464 89.8564151599
11 57.3906424155 88.5227807698
12 66.7549271283 92.0168213323
13 98.1757317509 14.9107048959
14 99.6675247818 22.4558038058
15 93.2532172818 5.6449030993
16 95.1967908168 14.8674249441
17 11.6501012405 39.4316609714
18 13.0991477058 20.5476128387
19 22.9827373766 27.9812267935
20 12.7158961152 33.3098227785
EOF
